Version identifier: 22.1.0.0 | 2022-03-09 | 1a383f8ce
CPXPARAM_Read_DataCheck                          1
Tried aggregator 4 times.
MIP Presolve eliminated 11862 rows and 2098 columns.
MIP Presolve modified 252 coefficients.
Aggregator did 10202 substitutions.
Reduced MIP has 2155 rows, 10578 columns, and 23302 nonzeros.
Reduced MIP has 10560 binaries, 18 generals, 0 SOSs, and 0 indicators.
Presolve time = 0.08 sec. (95.66 ticks)
Probing fixed 32 vars, tightened 0 bounds.
Probing changed sense of 2 constraints.
Probing time = 0.03 sec. (5.14 ticks)
Tried aggregator 2 times.
Detecting symmetries...
MIP Presolve eliminated 30 rows and 39 columns.
Aggregator did 16 substitutions.
Reduced MIP has 2109 rows, 10523 columns, and 23119 nonzeros.
Reduced MIP has 10505 binaries, 18 generals, 0 SOSs, and 0 indicators.
Presolve time = 0.02 sec. (23.26 ticks)
Probing fixed 2 vars, tightened 0 bounds.
Probing time = 0.03 sec. (4.71 ticks)
Clique table members: 21645.
MIP emphasis: balance optimality and feasibility.
MIP search method: dynamic search.
Parallel mode: deterministic, using up to 8 threads.
Root relaxation solution time = 0.16 sec. (77.35 ticks)

        Nodes                                         Cuts/
   Node  Left     Objective  IInf  Best Integer    Best Bound    ItCnt     Gap

      0     0       18.4212  1630                     18.4212     1899         
      0     0       30.0000   514                    Cuts: 37     4032         
      0     0       30.0000   538                    Cuts: 30     5495         
*     0+    0                           34.0000       30.0000            11.76%
      0     0       30.0000   504       34.0000   ZeroHalf: 7     5857   11.76%
*     0+    0                           33.0000       30.0000             9.09%
      0     0  -1.00000e+75     0       33.0000       30.0000     5857    9.09%
      0     0       30.0000   669       33.0000  ZeroHalf: 36     7277    9.09%
*     0+    0                           32.0000       30.0000             6.25%
      0     2       30.0000   366       32.0000       30.0000     7277    6.25%
Elapsed time = 9.28 sec. (6011.66 ticks, tree = 0.02 MB, solutions = 3)
      1     3       30.0347   523       32.0000       30.0000     9727    6.25%
      2     4       30.0625   593       32.0000       30.0000    11460    6.25%
     10     4       30.0625   355       32.0000       30.0000    11881    6.25%
     17    11       30.0909   351       32.0000       30.0000    16472    6.25%
     50    17       30.0909   452       32.0000       30.0000    19689    6.25%
    113    49       30.1964   448       32.0000       30.0000    42606    6.25%
    205   140       30.2631   403       32.0000       30.0000    87556    6.25%
*   206   146      integral     0       31.0000       30.0000    92705    3.23%
    239    40       30.0000   423       31.0000       30.0000   126543    3.23%
    260    24    infeasible             31.0000       30.0000   142170    3.23%
    267     6    infeasible             31.0000       30.0000   159897    3.23%
Elapsed time = 14.51 sec. (9576.71 ticks, tree = 0.02 MB, solutions = 4)

Clique cuts applied:  2
Zero-half cuts applied:  51
Lift and project cuts applied:  2
Gomory fractional cuts applied:  12

Root node processing (before b&c):
  Real time             =    9.24 sec. (5999.85 ticks)
Parallel b&c, 8 threads:
  Real time             =    5.27 sec. (3582.11 ticks)
  Sync time (average)   =    1.62 sec.
  Wait time (average)   =    0.00 sec.
                          ------------
Total (root+branch&cut) =   14.52 sec. (9581.96 ticks)
